nN = 5;
nR = 30;
nH = 2;

a = [[15, 16, 12, 17, 12, 15, 19, 15, 19, 17, 25, 17, 19, 15, 20, 16, 12, 16, 13, 22, 16, 16, 14, 21, 21, 24, 13, 25, 21, 22], [12, 20, 11, 13, 22, 15, 14, 22, 21, 10, 24, 22, 23, 14, 14, 22, 22, 17, 14, 19, 21, 11, 20, 21, 14, 23, 10, 17, 24, 22], [19, 19, 16, 11, 18, 20, 18, 22, 21, 15, 22, 23, 16, 23, 18, 18, 18, 22, 21, 12, 20, 18, 13, 25, 10, 23, 21, 24, 22, 18], [23, 12, 13, 12, 24, 23, 11, 20, 14, 20, 19, 14, 19, 22, 24, 13, 10, 16, 12, 23, 18, 24, 24, 18, 25, 10, 18, 18, 19, 15], [15, 13, 16, 23, 19, 21, 15, 12, 18, 21, 12, 18, 21, 16, 17, 14, 13, 14, 19, 18, 21, 12, 14, 17, 15, 24, 21, 13, 11, 24]];
c = [[[0, 0, 0, 0, 0, 0, 0, 0, 0, 0, 0, 0, 0, 0, 0, 0, 0, 0, 0, 0, 0, 0, 0, 0, 0, 0, 0, 0, 0, 0], [34, 42, 49, 48, 39, 36, 40, 39, 35, 48, 48, 41, 42, 35, 40, 38, 45, 35, 30, 38, 50, 49, 32, 32, 46, 46, 40, 31, 48, 37], [43, 35, 33, 46, 31, 34, 47, 38, 49, 44, 43, 47, 48, 50, 36, 50, 46, 35, 38, 43, 50, 34, 45, 42, 50, 48, 39, 41, 42, 44], [42, 35, 41, 36, 30, 39, 37, 41, 42, 43, 49, 48, 36, 44, 49, 38, 41, 47, 33, 42, 33, 41, 39, 30, 50, 45, 32, 45, 45, 48], [37, 47, 39, 37, 46, 39, 42, 39, 47, 41, 45, 39, 40, 45, 40, 49, 41, 44, 38, 31, 44, 38, 48, 42, 46, 30, 36, 42, 38, 38]], [[0, 0, 0, 0, 0, 0, 0, 0, 0, 0, 0, 0, 0, 0, 0, 0, 0, 0, 0, 0, 0, 0, 0, 0, 0, 0, 0, 0, 0, 0], [0, 0, 0, 0, 0, 0, 0, 0, 0, 0, 0, 0, 0, 0, 0, 0, 0, 0, 0, 0, 0, 0, 0, 0, 0, 0, 0, 0, 0, 0], [40, 50, 40, 46, 44, 31, 39, 36, 38, 46, 49, 40, 32, 44, 40, 30, 40, 46, 43, 36, 50, 37, 38, 43, 48, 43, 47, 41, 42, 30], [47, 32, 35, 48, 47, 39, 45, 35, 35, 36, 41, 48, 47, 35, 42, 47, 31, 46, 40, 35, 34, 36, 45, 35, 39, 37, 38, 41, 39, 43], [37, 50, 38, 32, 35, 44, 37, 31, 41, 38, 41, 39, 34, 35, 36, 49, 50, 36, 37, 49, 32, 50, 35, 30, 43, 30, 48, 32, 36, 50]], [[0, 0, 0, 0, 0, 0, 0, 0, 0, 0, 0, 0, 0, 0, 0, 0, 0, 0, 0, 0, 0, 0, 0, 0, 0, 0, 0, 0, 0, 0], [0, 0, 0, 0, 0, 0, 0, 0, 0, 0, 0, 0, 0, 0, 0, 0, 0, 0, 0, 0, 0, 0, 0, 0, 0, 0, 0, 0, 0, 0], [0, 0, 0, 0, 0, 0, 0, 0, 0, 0, 0, 0, 0, 0, 0, 0, 0, 0, 0, 0, 0, 0, 0, 0, 0, 0, 0, 0, 0, 0], [36, 39, 32, 39, 45, 34, 41, 40, 33, 41, 49, 33, 44, 44, 39, 40, 32, 43, 50, 46, 32, 30, 38, 42, 41, 42, 49, 50, 38, 50], [42, 32, 46, 35, 35, 44, 39, 30, 50, 31, 41, 42, 42, 49, 44, 48, 41, 33, 31, 44, 42, 49, 31, 49, 43, 34, 31, 31, 31, 44]], [[0, 0, 0, 0, 0, 0, 0, 0, 0, 0, 0, 0, 0, 0, 0, 0, 0, 0, 0, 0, 0, 0, 0, 0, 0, 0, 0, 0, 0, 0], [0, 0, 0, 0, 0, 0, 0, 0, 0, 0, 0, 0, 0, 0, 0, 0, 0, 0, 0, 0, 0, 0, 0, 0, 0, 0, 0, 0, 0, 0], [0, 0, 0, 0, 0, 0, 0, 0, 0, 0, 0, 0, 0, 0, 0, 0, 0, 0, 0, 0, 0, 0, 0, 0, 0, 0, 0, 0, 0, 0], [0, 0, 0, 0, 0, 0, 0, 0, 0, 0, 0, 0, 0, 0, 0, 0, 0, 0, 0, 0, 0, 0, 0, 0, 0, 0, 0, 0, 0, 0], [33, 34, 47, 32, 37, 42, 35, 40, 46, 49, 37, 49, 31, 40, 34, 39, 31, 42, 31, 35, 34, 31, 30, 32, 33, 36, 34, 45, 41, 31]], [[0, 0, 0, 0, 0, 0, 0, 0, 0, 0, 0, 0, 0, 0, 0, 0, 0, 0, 0, 0, 0, 0, 0, 0, 0, 0, 0, 0, 0, 0], [0, 0, 0, 0, 0, 0, 0, 0, 0, 0, 0, 0, 0, 0, 0, 0, 0, 0, 0, 0, 0, 0, 0, 0, 0, 0, 0, 0, 0, 0], [0, 0, 0, 0, 0, 0, 0, 0, 0, 0, 0, 0, 0, 0, 0, 0, 0, 0, 0, 0, 0, 0, 0, 0, 0, 0, 0, 0, 0, 0], [0, 0, 0, 0, 0, 0, 0, 0, 0, 0, 0, 0, 0, 0, 0, 0, 0, 0, 0, 0, 0, 0, 0, 0, 0, 0, 0, 0, 0, 0], [0, 0, 0, 0, 0, 0, 0, 0, 0, 0, 0, 0, 0, 0, 0, 0, 0, 0, 0, 0, 0, 0, 0, 0, 0, 0, 0, 0, 0, 0]]];

q = [[[7, 114], [13, 114], [21, 118], [19, 106], [10, 119], [23, 120], [14, 117], [16, 124], [13, 124], [16, 112], [17, 112], [11, 114], [23, 105], [20, 115], [9, 122], [24, 106], [24, 112], [19, 123], [18, 111], [21, 111], [18, 125], [18, 106], [18, 123], [17, 113], [24, 116], [19, 111], [9, 125], [9, 111], [7, 120], [13, 123]], [[12, 124], [12, 112], [23, 106], [23, 116], [6, 111], [24, 106], [13, 112], [24, 124], [16, 105], [17, 125], [9, 108], [15, 118], [5, 114], [20, 111], [19, 115], [17, 122], [16, 122], [13, 109], [8, 108], [13, 120], [24, 124], [5, 112], [6, 117], [25, 122], [10, 110], [16, 123], [23, 119], [8, 117], [6, 117], [13, 125]], [[11, 119], [17, 105], [17, 116], [21, 118], [12, 115], [13, 123], [16, 105], [17, 110], [15, 121], [11, 114], [16, 121], [20, 125], [23, 124], [18, 122], [14, 122], [24, 106], [23, 113], [21, 110], [6, 118], [20, 125], [13, 117], [10, 119], [20, 121], [15, 106], [20, 112], [10, 107], [8, 114], [23, 109], [24, 113], [18, 113]], [[18, 116], [23, 110], [13, 108], [8, 111], [15, 124], [12, 118], [16, 106], [13, 108], [9, 108], [6, 108], [12, 111], [13, 124], [13, 120], [14, 112], [18, 107], [6, 110], [6, 122], [7, 115], [12, 120], [10, 105], [22, 117], [10, 118], [8, 107], [8, 115], [9, 110], [18, 118], [5, 114], [7, 120], [21, 119], [22, 120]], [[22, 109], [7, 114], [7, 107], [13, 112], [12, 121], [15, 109], [13, 105], [12, 121], [23, 107], [16, 106], [21, 113], [9, 111], [15, 122], [16, 106], [6, 124], [18, 107], [11, 119], [16, 107], [22, 105], [6, 115], [9, 108], [7, 109], [15, 110], [9, 117], [6, 123], [16, 106], [17, 108], [23, 125], [5, 112], [10, 119]]];
Q = [[79, 556], [72, 556], [79, 555], [61, 548], [64, 541]];
